40
    29    43    10    19    31    18    27    15    68    59    46    82    17    75    93    93    80    29    71    25    87    38    64    57    97    70    32    75    99    48    13    63     7    48    26    11    65    98    64    13
     5    10     5     8     9     3     1     2     5     2     5     1     2     1    10     9     7     9     4     8     5     3     6     5     8     2    10     3     8     5     5    10     6     5     9     4     1     1     9     3
   747  1111  1041  1032   401  1148   906   789   747   893   629   996  1100   700   893   556  1138   918   656   906   832   858   478   780   766   577   649   999   461   649   505   832  1106   740   563  1186   673   983  1040   963
